NAME : rnd51_20.tsp
TYPE : TSP
DIMENSION : 20
EDGE_WEIGHT_TYPE : EUC_2D
NODE_COORD_SECTION
0 423 266
1 239 674
2 448 14
3 394 131
4 184 933
5 852 206
6 935 712
7 529 953
8 383 684
9 998 202
10 162 185
11 186 234
12 606 623
13 927 599
14 767 906
15 176 863
16 804 198
17 936 89
18 385 269
19 42 248
